56120
23, 21, 29, 22, 10, 16, 15, 39, 46, 36, 1, 27, 33, 42, 45, 11, 31, 25, 52, 2, 14, 9, 47, 30, 4, 18, 12, 34, 53, 54, 26, 55, 28, 6, 3, 49, 44, 8, 38, 50, 20, 24, 35, 5, 37, 7, 51, 40, 43, 13, 41, 32, 19, 48, 17
